c 
c G(k,n,p) graph
c graph gen seed     : 2984
c number of vertices : 30
c max number of edges: 500
c number of classes  : 2
c edge density       : 0.400000
c edge probability   : 0.800000
c data structure     : sparse
c
c           Graph Stats
c number of vertices  : 30
c nonisolated vertices: 30
c number of edges     : 120
c edge density        : 0.275862
c max degree          : 23
c avg degree          : 8.00
c min degree          : 3
p col 30 120
e 1 28
e 1 27
e 1 26
e 1 21
e 1 18
e 1 5
e 2 28
e 2 27
e 2 26
e 2 21
e 2 5
e 3 28
e 3 27
e 3 26
e 3 21
e 3 18
e 3 5
e 4 28
e 4 27
e 4 26
e 4 21
e 4 5
e 5 30
e 5 25
e 5 24
e 5 23
e 5 22
e 5 20
e 5 19
e 5 17
e 5 16
e 5 14
e 5 13
e 5 12
e 5 11
e 5 10
e 5 9
e 5 8
e 5 6
e 6 28
e 6 27
e 6 26
e 6 21
e 7 28
e 7 26
e 7 21
e 8 27
e 8 26
e 8 21
e 8 18
e 9 28
e 9 27
e 9 26
e 9 18
e 10 28
e 10 26
e 10 21
e 10 18
e 11 28
e 11 27
e 11 26
e 12 28
e 12 27
e 12 26
e 12 21
e 12 18
e 13 28
e 13 27
e 13 26
e 13 21
e 14 28
e 14 27
e 14 26
e 14 21
e 14 18
e 15 28
e 15 27
e 15 26
e 15 18
e 16 28
e 16 27
e 16 21
e 16 18
e 17 28
e 17 27
e 17 18
e 18 30
e 18 29
e 18 24
e 18 23
e 18 22
e 18 20
e 19 28
e 19 27
e 19 26
e 20 28
e 20 26
e 20 21
e 21 30
e 21 25
e 21 24
e 21 23
e 22 28
e 22 27
e 22 26
e 23 28
e 23 27
e 23 26
e 24 28
e 24 27
e 24 26
e 25 28
e 25 27
e 25 26
e 26 30
e 26 29
e 27 30
e 27 29
e 28 30
e 28 29
